(set-logic QF_FPBV)
(set-option :produce-models true)
(set-info :source |Random FP created by PyMPF|)
(set-info :category random)
(set-info :status sat)
;; fp.from.ubv(BitVec 128)
(declare-const x (_ BitVec 128))
(assert (= x #b01001011001001000110111101010100100011111000011001011001101110010110011111111110100110001011000101001100010000010100010110010010))
;; x should be 99881280417826376971072972280454792594
(declare-const r Float16)
(assert (= r ((_ to_fp_unsigned 5 11) RTN x)))
(assert (fp.eq r (fp #b0 #b11110 #b1111111111)))
(check-sat)
(exit)
